/* Objective function */
max: +C1 +2 C2 +3 C3 +4 C4 +5 C5 +6 C6 +7 C7 +8 C8 +9 C9 +10 C10 +3 C11 +2 C12 +5 C13 +4 C14 +C15 +7 C16 +10 C17
 +8 C18 +9 C19 +6 C20 +10 C21 +9 C22 +8 C23 +7 C24 +6 C25 +5 C26 +4 C27 +3 C28 +2 C29 +C30 +2 C31 +3 C32
 +4 C33 +5 C34 +C35 +7 C36 +6 C37 +8 C38 +9 C39 +10 C40 +C41 +2 C42 +9 C43 +10 C44 +8 C45 +3 C46 +4 C47
 +7 C48 +6 C49 +5 C50;

/* Constraints */
+C1 +C11 +C21 +C31 +C41 <= 1;
+C2 +C12 +C22 +C32 +C42 <= 1;
+C3 +C13 +C23 +C33 +C43 <= 1;
+C4 +C14 +C24 +C34 +C44 <= 1;
+C5 +C15 +C25 +C35 +C45 <= 1;
+C6 +C16 +C26 +C36 +C46 <= 1;
+C7 +C17 +C27 +C37 +C47 <= 1;
+C8 +C18 +C28 +C38 +C48 <= 1;
+C9 +C19 +C29 +C39 +C49 <= 1;
+C10 +C20 +C30 +C40 +C50 <= 1;
+C1 +C2 +C3 +C4 +C5 +C6 +C7 +C8 +C9 +C10 = 2;
+C11 +C12 +C13 +C14 +C15 +C16 +C17 +C18 +C19 +C20 = 2;
+C21 +C22 +C23 +C24 +C25 +C26 +C27 +C28 +C29 +C30 = 2;
+C31 +C32 +C33 +C34 +C35 +C36 +C37 +C38 +C39 +C40 = 2;
+C41 +C42 +C43 +C44 +C45 +C46 +C47 +C48 +C49 +C50 = 2;

/* Variable bounds */
C1 <= 1;
C2 <= 1;
C3 <= 1;
C4 <= 1;
C5 <= 1;
C6 <= 1;
C7 <= 1;
C8 <= 1;
C9 <= 1;
C10 <= 1;
C11 <= 1;
C12 <= 1;
C13 <= 1;
C14 <= 1;
C15 <= 1;
C16 <= 1;
C17 <= 1;
C18 <= 1;
C19 <= 1;
C20 <= 1;
C21 <= 1;
C22 <= 1;
C23 <= 1;
C24 <= 1;
C25 <= 1;
C26 <= 1;
C27 <= 1;
C28 <= 1;
C29 <= 1;
C30 <= 1;
C31 <= 1;
C32 <= 1;
C33 <= 1;
C34 <= 1;
C35 <= 1;
C36 <= 1;
C37 <= 1;
C38 <= 1;
C39 <= 1;
C40 <= 1;
C41 <= 1;
C42 <= 1;
C43 <= 1;
C44 <= 1;
C45 <= 1;
C46 <= 1;
C47 <= 1;
C48 <= 1;
C49 <= 1;
C50 <= 1;

/* Integer definitions */
int C1,C2,C3,C4,C5,C6,C7,C8,C9,C10,C11,C12,C13,C14,C15,C16,C17,C18,C19,C20,C21,C22,C23,C24,C25,C26,C27,C28,C29,C30,C31,C32,C33,C34,C35,C36,C37,C38,C39,C40,C41,C42,C43,C44,C45,C46,C47,C48,C49,C50;
